&CONTROL
  calculation = 'scf' ,
  restart_mode = 'from_scratch' ,
  prefix = 'H_He' ,
  verbosity = 'high' ,
  pseudo_dir = './' ,
  outdir = './' ,
  tstress = .true. ,
  tprnfor = .true. ,
/
&SYSTEM
  ibrav = 0 ,
  celldm(1) = 1.0 ,
  nosym = .true. ,
  nat = 60 ,
  ntyp = 2 ,
  nspin = 1 ,
  nbnd = 96 ,
  occupations = 'smearing' ,
  smearing = 'f-d' ,
  degauss = 0.0063338 ,
  ecutwfc = 60 ,
  input_dft = 'pbe' ,
/
&ELECTRONS
  diagonalization = 'david' ,
  electron_maxstep = 2000 ,
  conv_thr = 1e-3 ,
  mixing_beta = 0.7 ,
/
ATOMIC_SPECIES
  H  1.00794  h.ncpp
  He 4.00260  he.ncpp 
K_POINTS {automatic}
2 2 2 0 0 0 
CELL_PARAMETERS 
  7.0927645986e+00 0.0000 0.00000 
  0.0000 7.0927645986e+00 0.0000 
  0.0000 0.00000 7.0927645986e+00 
ATOMIC_POSITIONS {crystal} 
He  4.4000336000e-01  6.2863325000e-01  3.2462930000e-01
He  1.5516112000e-01  3.6306230000e-01  8.2782398000e-01
He  3.6821264000e-01  4.9379050000e-01  5.1941630000e-02
He  8.2395515000e-01  9.3479934000e-01  6.6656430000e-01
H  2.6333890000e-01  7.2393562000e-01  5.7728290000e-02
H  1.3554596000e-01  1.0997654000e-01  5.4708243000e-01
H  2.8942489000e-01  6.4603580000e-01  7.9133418000e-01
H  3.1701986000e-01  2.5810972000e-01  2.4811821000e-01
H  9.4897474000e-01  5.1738533000e-01  9.0586910000e-02
H  4.9166984000e-01  8.7161904000e-01  8.1365720000e-02
H  9.1138811000e-01  4.5228268000e-01  7.3331184000e-01
H  6.5020136000e-01  2.3684199000e-01  2.2546738000e-01
H  9.0203213000e-01  8.1594402000e-01  1.2444735000e-01
H  8.9112095000e-01  2.1591572000e-01  9.1630769000e-01
H  7.9151887000e-01  2.6156903000e-01  7.1586450000e-02
H  6.5896148000e-01  4.6167262000e-01  9.8777980000e-01
H  6.7980540000e-01  7.1040673000e-01  9.1828406000e-01
H  1.4168484000e-01  7.9955100000e-03  3.2236624000e-01
H  6.6347934000e-01  6.8278591000e-01  6.7241144000e-01
H  6.7495523000e-01  9.5933681000e-01  3.6358580000e-02
H  3.6667602000e-01  4.7418829000e-01  7.7037196000e-01
H  8.6494163000e-01  7.4721248000e-01  4.5378428000e-01
H  3.4754731000e-01  2.2905894000e-01  5.2065595000e-01
H  2.5562606000e-01  7.3109512000e-01  5.3718357000e-01
H  3.1465116000e-01  5.6393180000e-01  5.5302430000e-01
H  6.5948437000e-01  2.8391617000e-01  4.9332850000e-02
H  9.6409011000e-01  6.6323050000e-01  7.3968378000e-01
H  8.0511605000e-01  3.6364184000e-01  3.3082430000e-01
H  6.9350127000e-01  8.6868356000e-01  1.9448789000e-01
H  6.3615863000e-01  4.1353595000e-01  3.5219368000e-01
H  7.7539397000e-01  5.1698463000e-01  8.3678556000e-01
H  5.2419210000e-02  7.8551817000e-01  5.1501222000e-01
H  7.9647872000e-01  6.3691056000e-01  2.3236040000e-01
H  5.6465830000e-02  5.5067828000e-01  4.7626449000e-01
H  6.2696974000e-01  9.7474860000e-02  9.0796207000e-01
H  6.7221036000e-01  6.0469009000e-01  5.1640955000e-01
H  4.3808565000e-01  1.3842466000e-01  3.5810665000e-01
H  6.7363360000e-02  9.7238825000e-01  7.3944110000e-01
H  3.6334003000e-01  1.2769958000e-01  8.3270025000e-01
H  5.0435876000e-01  8.9198690000e-01  3.5200168000e-01
H  3.1418043000e-01  9.3599318000e-01  1.8229300000e-03
H  8.2652700000e-03  3.3867858000e-01  5.4906500000e-01
H  4.6634449000e-01  1.8122713000e-01  9.7641090000e-02
H  4.2789807000e-01  7.6149465000e-01  7.8650396000e-01
H  3.8046231000e-01  9.5958778000e-01  6.8673446000e-01
H  1.3790431000e-01  2.4291661000e-01  3.9912950000e-02
H  6.6165033000e-01  3.1550628000e-01  5.1312131000e-01
H  7.1716761000e-01  7.6007730000e-02  4.4985446000e-01
H  4.8134222000e-01  8.2314534000e-01  5.8091044000e-01
H  9.0586283000e-01  1.3755088000e-01  4.8100259000e-01
H  2.3136386000e-01  7.7808845000e-01  2.3999653000e-01
H  4.5163080000e-02  9.6982957000e-01  9.2466957000e-01
H  2.0265114000e-01  4.7848716000e-01  2.4386794000e-01
H  5.5766341000e-01  4.1226520000e-01  7.9309339000e-01
H  9.1021442000e-01  3.0413460000e-02  2.0037372000e-01
H  9.2748660000e-01  9.9893341000e-01  3.8184188000e-01
H  6.3140500000e-02  6.7454215000e-01  1.4717430000e-02
H  9.8453937000e-01  2.9021055000e-01  2.5184139000e-01
H  7.3346389000e-01  3.1653723000e-01  7.4152535000e-01
H  4.1649840000e-01  4.4047219000e-01  3.7548715000e-01
